n_couriers = 5;
n_items = 11;
max_load = [14, 10, 8, 12, 7]; %51 tot
size_item = [3, 2, 6, 8, 5, 4, 4, 6, 4, 6, 3]; %51 tot

all_distances = [|0, 5, 6, 3, 7, 6, 3, 6, 6, 4, 5, 6 |
			            5, 0, 2, 3, 3, 4, 3, 4, 4, 3, 8, 4 | 
                  9, 2, 0, 3, 3, 6, 5, 6, 6, 8, 3, 3 |  
                  2, 3, 3, 0, 4, 3, 4, 7, 7, 2, 9, 9 | 
                  8, 3, 3, 4, 0, 7, 6, 3, 5, 9, 2, 7 | 
                  4, 4, 6, 3, 7, 0, 3, 6, 6, 4, 2, 9 | 
                  1, 3, 5, 4, 6, 3, 0, 3, 3, 6, 8, 5 | 
                  7, 4, 6, 7, 3, 6, 3, 0, 2, 3, 6, 3 | 
                  9, 4, 6, 7, 5, 6, 3, 2, 0, 8, 3, 5 |
                  4, 4, 6, 7, 5, 6, 3, 2, 2, 0, 9, 9 |
                  8, 3, 3, 4, 6, 7, 6, 3, 5, 9, 0, 4 |
                  7, 4, 6, 7, 3, 6, 3, 4, 2, 3, 6, 0 |];